33D32945 STP File, STP Format Version 1.0

SECTION Comment
Name "i640-034-PCST"
Creator "Indaco Biazzo" 
Remark "derived from Incidence graph by Cees Duin"
END

SECTION Graph
Nodes 640
Edges 1280
E 1 76 189.000000
E 1 100 196.000000
E 1 179 202.000000
E 1 217 205.000000
E 1 347 203.000000
E 1 373 196.000000
E 1 438 206.000000
E 1 485 195.000000
E 1 511 197.000000
E 1 566 200.000000
E 2 84 195.000000
E 2 379 195.000000
E 2 466 201.000000
E 2 483 199.000000
E 2 559 200.000000
E 2 566 200.000000
E 3 413 205.000000
E 3 424 194.000000
E 3 455 198.000000
E 3 520 196.000000
E 3 536 204.000000
E 4 59 193.000000
E 4 516 204.000000
E 4 627 194.000000
E 5 75 205.000000
E 5 383 196.000000
E 5 455 211.000000
E 6 243 191.000000
E 6 482 203.000000
E 6 626 198.000000
E 7 144 204.000000
E 7 265 196.000000
E 7 347 197.000000
E 8 127 208.000000
E 8 188 198.000000
E 8 236 202.000000
E 8 461 204.000000
E 8 503 202.000000
E 8 536 197.000000
E 9 293 196.000000
E 9 497 198.000000
E 10 116 101.000000
E 10 252 98.000000
E 11 291 94.000000
E 11 317 103.000000
E 11 460 104.000000
E 11 482 97.000000
E 12 93 96.000000
E 12 99 105.000000
E 12 302 98.000000
E 12 380 106.000000
E 12 453 95.000000
E 12 492 102.000000
E 13 25 100.000000
E 13 157 94.000000
E 13 244 99.000000
E 14 140 93.000000
E 14 152 101.000000
E 14 267 98.000000
E 14 528 101.000000
E 14 584 98.000000
E 15 30 99.000000
E 15 58 107.000000
E 15 198 100.000000
E 15 506 100.000000
E 16 300 96.000000
E 16 342 99.000000
E 16 545 103.000000
E 16 570 93.000000
E 16 602 99.000000
E 17 286 101.000000
E 17 431 104.000000
E 18 51 111.000000
E 18 403 100.000000
E 18 440 103.000000
E 19 116 102.000000
E 19 175 99.000000
E 19 228 99.000000
E 19 433 98.000000
E 20 275 98.000000
E 20 287 101.000000
E 20 378 95.000000
E 20 382 102.000000
E 20 462 103.000000
E 20 526 107.000000
E 21 171 101.000000
E 21 212 104.000000
E 21 224 106.000000
E 21 321 96.000000
E 21 375 96.000000
E 22 36 95.000000
E 22 299 101.000000
E 23 54 96.000000
E 23 126 99.000000
E 23 154 101.000000
E 23 155 104.000000
E 23 196 103.000000
E 23 236 97.000000
E 23 353 108.000000
E 23 401 99.000000
E 23 405 101.000000
E 23 522 99.000000
E 23 530 99.000000
E 23 586 87.000000
E 23 597 97.000000
E 23 619 93.000000
E 24 362 102.000000
E 25 359 105.000000
E 26 114 100.000000
E 26 372 103.000000
E 27 65 100.000000
E 27 77 101.000000
E 27 204 86.000000
E 27 230 100.000000
E 27 303 106.000000
E 27 320 105.000000
E 27 434 97.000000
E 27 464 98.000000
E 27 484 97.000000
E 27 589 101.000000
E 28 94 99.000000
E 28 158 99.000000
E 28 309 98.000000
E 28 385 103.000000
E 29 86 93.000000
E 29 117 100.000000
E 29 179 101.000000
E 29 203 91.000000
E 29 281 99.000000
E 29 316 99.000000
E 29 402 100.000000
E 29 428 99.000000
E 29 440 100.000000
E 29 625 101.000000
E 30 89 102.000000
E 30 93 96.000000
E 30 128 110.000000
E 30 273 100.000000
E 30 461 109.000000
E 31 316 99.000000
E 31 365 96.000000
E 32 88 105.000000
E 32 501 98.000000
E 33 254 104.000000
E 33 629 100.000000
E 34 52 99.000000
E 34 170 95.000000
E 34 189 102.000000
E 34 310 92.000000
E 34 457 98.000000
E 35 94 107.000000
E 35 144 95.000000
E 35 169 97.000000
E 35 270 105.000000
E 36 133 101.000000
E 36 207 110.000000
E 36 272 101.000000
E 36 410 104.000000
E 37 53 90.000000
E 37 177 98.000000
E 37 381 100.000000
E 37 454 96.000000
E 38 147 97.000000
E 38 495 104.000000
E 38 568 98.000000
E 39 370 98.000000
E 39 413 100.000000
E 40 378 102.000000
E 40 584 105.000000
E 41 123 100.000000
E 41 292 96.000000
E 41 421 104.000000
E 41 483 107.000000
E 42 91 101.000000
E 42 293 104.000000
E 42 623 101.000000
E 43 394 94.000000
E 44 154 91.000000
E 44 435 107.000000
E 45 60 102.000000
E 45 214 98.000000
E 45 224 95.000000
E 45 227 97.000000
E 45 241 96.000000
E 45 282 101.000000
E 45 443 91.000000
E 45 585 99.000000
E 45 622 98.000000
E 46 86 97.000000
E 46 160 108.000000
E 46 479 88.000000
E 46 526 100.000000
E 47 72 107.000000
E 47 269 97.000000
E 47 480 93.000000
E 47 501 100.000000
E 48 96 100.000000
E 48 161 96.000000
E 48 263 99.000000
E 48 432 101.000000
E 48 468 100.000000
E 49 213 105.000000
E 49 250 100.000000
E 49 478 114.000000
E 49 547 95.000000
E 50 158 98.000000
E 50 196 102.000000
E 50 631 106.000000
E 51 91 94.000000
E 51 261 103.000000
E 51 496 102.000000
E 51 607 98.000000
E 52 70 104.000000
E 52 93 103.000000
E 52 284 94.000000
E 52 287 97.000000
E 52 471 105.000000
E 53 94 103.000000
E 53 97 102.000000
E 53 178 101.000000
E 53 245 100.000000
E 53 395 91.000000
E 53 449 110.000000
E 54 125 101.000000
E 54 197 105.000000
E 54 224 95.000000
E 54 267 106.000000
E 54 341 102.000000
E 54 500 109.000000
E 54 562 100.000000
E 54 580 98.000000
E 54 633 102.000000
E 55 122 105.000000
E 55 178 104.000000
E 55 324 103.000000
E 55 377 104.000000
E 55 463 97.000000
E 55 533 105.000000
E 55 637 96.000000
E 56 183 91.000000
E 56 287 93.000000
E 56 296 103.000000
E 56 376 101.000000
E 56 455 95.000000
E 56 478 97.000000
E 57 390 95.000000
E 58 400 104.000000
E 58 437 94.000000
E 59 141 94.000000
E 59 225 104.000000
E 59 313 105.000000
E 59 315 98.000000
E 59 571 94.000000
E 60 373 99.000000
E 60 404 99.000000
E 61 222 98.000000
E 61 537 99.000000
E 62 85 95.000000
E 62 196 92.000000
E 62 313 105.000000
E 62 495 108.000000
E 62 504 90.000000
E 62 538 98.000000
E 63 267 100.000000
E 63 280 84.000000
E 63 309 96.000000
E 64 172 95.000000
E 64 212 98.000000
E 64 491 91.000000
E 65 306 90.000000
E 65 321 96.000000
E 65 370 105.000000
E 65 587 101.000000
E 66 73 100.000000
E 66 410 95.000000
E 67 70 107.000000
E 67 568 96.000000
E 67 620 97.000000
E 68 338 100.000000
E 68 390 101.000000
E 68 432 108.000000
E 69 222 100.000000
E 69 357 107.000000
E 69 397 97.000000
E 69 553 98.000000
E 70 196 106.000000
E 70 411 97.000000
E 70 523 97.000000
E 71 157 102.000000
E 71 330 95.000000
E 71 344 95.000000
E 71 347 102.000000
E 72 462 94.000000
E 73 256 103.000000
E 73 592 96.000000
E 74 344 98.000000
E 74 412 104.000000
E 74 442 101.000000
E 75 459 105.000000
E 76 80 98.000000
E 76 91 97.000000
E 76 94 91.000000
E 76 114 95.000000
E 76 126 101.000000
E 76 156 98.000000
E 76 184 100.000000
E 76 297 105.000000
E 76 490 97.000000
E 76 515 98.000000
E 77 228 105.000000
E 77 476 100.000000
E 78 234 96.000000
E 78 305 91.000000
E 78 348 102.000000
E 78 399 108.000000
E 78 593 96.000000
E 79 403 97.000000
E 79 468 103.000000
E 79 493 104.000000
E 80 88 95.000000
E 80 104 112.000000
E 80 247 106.000000
E 80 534 96.000000
E 80 564 99.000000
E 80 605 100.000000
E 81 388 94.000000
E 82 133 98.000000
E 82 304 103.000000
E 82 559 92.000000
E 83 90 108.000000
E 83 395 94.000000
E 83 572 102.000000
E 83 632 99.000000
E 84 109 100.000000
E 84 160 93.000000
E 84 396 108.000000
E 84 424 106.000000
E 85 518 103.000000
E 85 583 102.000000
E 86 87 105.000000
E 86 222 98.000000
E 86 276 100.000000
E 86 460 97.000000
E 87 190 100.000000
E 87 232 98.000000
E 87 292 105.000000
E 87 608 106.000000
E 88 95 102.000000
E 88 153 91.000000
E 88 226 99.000000
E 88 287 103.000000
E 88 390 94.000000
E 88 413 103.000000
E 88 414 95.000000
E 88 526 98.000000
E 88 547 97.000000
E 88 610 105.000000
E 89 131 99.000000
E 89 184 100.000000
E 89 221 112.000000
E 89 302 95.000000
E 89 404 98.000000
E 89 479 98.000000
E 89 589 98.000000
E 89 608 110.000000
E 90 236 108.000000
E 90 289 91.000000
E 90 335 98.000000
E 90 520 103.000000
E 91 231 97.000000
E 91 232 94.000000
E 92 269 93.000000
E 92 288 105.000000
E 92 626 101.000000
E 93 94 96.000000
E 93 337 96.000000
E 93 387 104.000000
E 93 434 95.000000
E 93 580 99.000000
E 93 592 94.000000
E 94 531 86.000000
E 94 585 102.000000
E 94 596 93.000000
E 94 612 95.000000
E 95 100 101.000000
E 95 304 108.000000
E 95 573 105.000000
E 96 186 101.000000
E 96 249 101.000000
E 97 266 101.000000
E 97 374 100.000000
E 97 522 89.000000
E 97 544 95.000000
E 98 215 102.000000
E 98 422 100.000000
E 98 519 102.000000
E 98 610 100.000000
E 99 140 105.000000
E 99 200 99.000000
E 99 271 100.000000
E 99 547 99.000000
E 99 558 99.000000
E 99 636 102.000000
E 100 119 95.000000
E 100 198 111.000000
E 100 277 99.000000
E 100 360 95.000000
E 100 433 101.000000
E 100 496 95.000000
E 100 537 103.000000
E 100 586 90.000000
E 101 132 94.000000
E 101 200 95.000000
E 101 411 101.000000
E 101 509 91.000000
E 101 638 96.000000
E 102 190 106.000000
E 102 371 98.000000
E 102 412 100.000000
E 102 581 95.000000
E 102 600 99.000000
E 103 144 90.000000
E 103 220 98.000000
E 103 303 103.000000
E 103 437 104.000000
E 103 598 97.000000
E 103 631 100.000000
E 104 323 102.000000
E 104 338 95.000000
E 104 384 104.000000
E 104 620 94.000000
E 105 201 101.000000
E 105 221 92.000000
E 105 239 109.000000
E 105 428 94.000000
E 105 450 100.000000
E 105 564 103.000000
E 105 613 103.000000
E 106 255 100.000000
E 106 259 97.000000
E 106 593 90.000000
E 107 274 105.000000
E 108 455 89.000000
E 108 505 93.000000
E 108 557 106.000000
E 108 604 101.000000
E 108 626 92.000000
E 109 525 105.000000
E 109 638 103.000000
E 110 189 98.000000
E 110 606 94.000000
E 111 119 98.000000
E 111 276 94.000000
E 111 345 99.000000
E 111 523 102.000000
E 111 570 108.000000
E 111 604 96.000000
E 112 197 99.000000
E 112 268 95.000000
E 112 279 93.000000
E 112 538 104.000000
E 112 543 98.000000
E 112 577 97.000000
E 112 613 101.000000
E 113 152 96.000000
E 113 186 105.000000
E 113 198 104.000000
E 113 487 105.000000
E 113 495 98.000000
E 113 605 113.000000
E 114 333 99.000000
E 114 392 94.000000
E 115 324 113.000000
E 115 543 102.000000
E 116 150 100.000000
E 116 346 93.000000
E 117 206 93.000000
E 117 209 101.000000
E 117 270 103.000000
E 117 449 96.000000
E 117 489 100.000000
E 118 129 107.000000
E 118 193 99.000000
E 118 239 100.000000
E 118 243 99.000000
E 118 302 102.000000
E 118 376 102.000000
E 118 407 86.000000
E 118 477 97.000000
E 118 498 104.000000
E 119 237 100.000000
E 119 526 100.000000
E 120 171 97.000000
E 120 352 97.000000
E 120 373 95.000000
E 120 380 95.000000
E 121 377 101.000000
E 121 405 101.000000
E 122 194 95.000000
E 122 327 96.000000
E 122 333 96.000000
E 122 585 98.000000
E 123 595 95.000000
E 124 130 105.000000
E 124 343 106.000000
E 124 384 89.000000
E 124 469 95.000000
E 124 635 95.000000
E 125 203 104.000000
E 125 215 97.000000
E 125 297 89.000000
E 125 301 107.000000
E 126 235 97.000000
E 126 367 100.000000
E 127 180 95.000000
E 127 513 102.000000
E 128 281 99.000000
E 128 379 106.000000
E 129 341 99.000000
E 130 266 100.000000
E 130 619 103.000000
E 131 239 99.000000
E 131 408 102.000000
E 132 213 95.000000
E 132 249 92.000000
E 133 177 85.000000
E 133 447 93.000000
E 133 516 107.000000
E 134 236 98.000000
E 134 362 109.000000
E 134 388 99.000000
E 134 398 101.000000
E 134 430 99.000000
E 134 450 91.000000
E 134 477 104.000000
E 134 519 99.000000
E 134 571 97.000000
E 135 216 97.000000
E 135 249 95.000000
E 135 335 97.000000
E 135 457 98.000000
E 135 508 89.000000
E 135 622 90.000000
E 136 207 100.000000
E 136 352 102.000000
E 136 532 94.000000
E 137 148 89.000000
E 137 424 107.000000
E 138 166 95.000000
E 138 230 96.000000
E 138 244 101.000000
E 138 347 107.000000
E 138 493 100.000000
E 139 201 101.000000
E 139 238 101.000000
E 139 419 97.000000
E 139 545 98.000000
E 140 346 107.000000
E 140 440 97.000000
E 140 539 105.000000
E 141 157 103.000000
E 141 451 104.000000
E 141 583 111.000000
E 142 208 104.000000
E 142 240 97.000000
E 142 259 95.000000
E 143 470 101.000000
E 143 565 99.000000
E 144 163 93.000000
E 144 206 109.000000
E 144 359 104.000000
E 144 449 91.000000
E 144 472 103.000000
E 144 582 105.000000
E 144 639 106.000000
E 145 313 101.000000
E 145 621 94.000000
E 146 543 98.000000
E 147 258 102.000000
E 148 231 109.000000
E 148 386 97.000000
E 149 220 94.000000
E 149 315 96.000000
E 149 528 101.000000
E 150 471 99.000000
E 151 460 103.000000
E 152 292 102.000000
E 152 411 99.000000
E 152 613 101.000000
E 153 206 94.000000
E 154 181 104.000000
E 154 285 96.000000
E 154 374 104.000000
E 154 393 105.000000
E 154 430 107.000000
E 154 432 94.000000
E 154 439 106.000000
E 154 446 98.000000
E 154 536 96.000000
E 155 562 106.000000
E 155 588 93.000000
E 156 223 109.000000
E 157 241 99.000000
E 157 518 96.000000
E 157 616 101.000000
E 158 376 101.000000
E 158 513 103.000000
E 158 591 100.000000
E 159 470 106.000000
E 159 552 110.000000
E 160 206 103.000000
E 160 329 99.000000
E 160 408 102.000000
E 161 412 104.000000
E 161 471 104.000000
E 162 179 102.000000
E 162 194 97.000000
E 162 255 107.000000
E 162 371 98.000000
E 162 623 106.000000
E 163 464 101.000000
E 163 575 97.000000
E 163 596 101.000000
E 164 261 100.000000
E 164 276 101.000000
E 164 347 97.000000
E 164 401 100.000000
E 164 634 100.000000
E 165 302 95.000000
E 165 394 100.000000
E 165 447 101.000000
E 166 299 97.000000
E 166 328 96.000000
E 166 433 95.000000
E 166 516 109.000000
E 167 214 95.000000
E 167 448 102.000000
E 168 475 96.000000
E 168 507 92.000000
E 168 587 100.000000
E 169 217 98.000000
E 169 402 100.000000
E 169 501 97.000000
E 170 187 98.000000
E 170 250 89.000000
E 170 348 104.000000
E 171 301 104.000000
E 171 429 107.000000
E 171 562 94.000000
E 172 569 92.000000
E 173 471 96.000000
E 173 585 102.000000
E 174 199 102.000000
E 174 236 90.000000
E 174 239 103.000000
E 174 282 102.000000
E 174 441 103.000000
E 174 454 97.000000
E 174 517 98.000000
E 174 578 94.000000
E 175 530 106.000000
E 176 217 104.000000
E 176 254 94.000000
E 176 442 97.000000
E 176 470 101.000000
E 177 492 94.000000
E 179 361 94.000000
E 179 437 97.000000
E 179 440 102.000000
E 179 605 101.000000
E 180 550 109.000000
E 180 618 100.000000
E 182 233 91.000000
E 182 341 107.000000
E 182 414 104.000000
E 182 434 101.000000
E 182 533 96.000000
E 182 540 92.000000
E 183 250 103.000000
E 184 271 92.000000
E 184 471 100.000000
E 185 338 96.000000
E 185 356 96.000000
E 185 380 109.000000
E 186 319 100.000000
E 186 488 98.000000
E 186 612 92.000000
E 187 377 102.000000
E 187 380 98.000000
E 187 563 99.000000
E 188 358 98.000000
E 188 401 95.000000
E 188 518 89.000000
E 188 555 101.000000
E 188 629 102.000000
E 189 235 102.000000
E 189 395 102.000000
E 190 393 106.000000
E 191 386 96.000000
E 191 564 96.000000
E 191 590 100.000000
E 192 202 102.000000
E 192 217 101.000000
E 192 274 102.000000
E 192 590 103.000000
E 193 291 94.000000
E 193 358 94.000000
E 193 394 110.000000
E 194 379 96.000000
E 194 416 103.000000
E 194 470 100.000000
E 195 219 104.000000
E 195 223 105.000000
E 195 363 107.000000
E 195 407 99.000000
E 195 532 99.000000
E 196 209 101.000000
E 196 327 97.000000
E 197 263 96.000000
E 197 272 107.000000
E 197 373 104.000000
E 197 569 99.000000
E 198 226 102.000000
E 198 257 98.000000
E 198 308 107.000000
E 198 469 102.000000
E 199 338 94.000000
E 199 426 98.000000
E 199 494 103.000000
E 200 295 88.000000
E 201 271 100.000000
E 201 282 100.000000
E 201 429 99.000000
E 201 435 97.000000
E 201 502 99.000000
E 201 528 100.000000
E 201 635 93.000000
E 202 473 99.000000
E 202 549 93.000000
E 202 603 97.000000
E 203 261 107.000000
E 203 296 86.000000
E 203 383 106.000000
E 203 598 110.000000
E 204 456 92.000000
E 204 554 105.000000
E 205 237 101.000000
E 205 382 96.000000
E 205 419 94.000000
E 205 456 98.000000
E 205 589 100.000000
E 205 620 105.000000
E 206 583 104.000000
E 208 410 99.000000
E 208 584 96.000000
E 210 236 103.000000
E 210 364 102.000000
E 210 439 105.000000
E 211 270 101.000000
E 211 551 103.000000
E 212 433 101.000000
E 212 552 106.000000
E 212 570 102.000000
E 213 230 95.000000
E 213 450 97.000000
E 214 305 94.000000
E 214 406 92.000000
E 214 527 97.000000
E 214 606 93.000000
E 215 296 100.000000
E 215 304 103.000000
E 215 612 110.000000
E 215 638 96.000000
E 216 282 95.000000
E 217 293 107.000000
E 217 521 105.000000
E 218 410 95.000000
E 218 461 103.000000
E 219 267 105.000000
E 219 406 92.000000
E 220 296 105.000000
E 220 374 97.000000
E 220 423 92.000000
E 221 263 102.000000
E 221 286 102.000000
E 221 315 106.000000
E 221 518 95.000000
E 221 558 103.000000
E 222 460 97.000000
E 222 594 95.000000
E 223 251 106.000000
E 223 546 99.000000
E 224 481 100.000000
E 225 380 102.000000
E 226 306 104.000000
E 227 294 99.000000
E 227 622 98.000000
E 228 237 107.000000
E 228 282 91.000000
E 228 550 109.000000
E 228 612 95.000000
E 229 271 95.000000
E 229 426 101.000000
E 229 493 104.000000
E 230 272 102.000000
E 230 554 103.000000
E 230 589 109.000000
E 230 591 104.000000
E 231 249 91.000000
E 231 267 104.000000
E 232 262 93.000000
E 232 479 98.000000
E 232 521 104.000000
E 232 527 96.000000
E 233 434 104.000000
E 234 275 96.000000
E 234 312 99.000000
E 234 413 102.000000
E 235 290 102.000000
E 235 386 97.000000
E 235 389 104.000000
E 235 425 104.000000
E 235 523 98.000000
E 235 567 98.000000
E 235 599 101.000000
E 236 320 103.000000
E 236 500 90.000000
E 236 549 99.000000
E 237 280 105.000000
E 237 598 101.000000
E 239 481 99.000000
E 240 255 102.000000
E 240 326 96.000000
E 241 362 94.000000
E 241 562 106.000000
E 241 574 110.000000
E 241 615 102.000000
E 242 610 102.000000
E 243 316 97.000000
E 243 557 101.000000
E 243 591 93.000000
E 246 325 91.000000
E 246 462 102.000000
E 247 555 106.000000
E 247 569 104.000000
E 248 334 93.000000
E 248 409 101.000000
E 248 515 102.000000
E 248 558 91.000000
E 249 341 110.000000
E 249 421 99.000000
E 250 496 99.000000
E 251 301 94.000000
E 251 503 96.000000
E 252 273 106.000000
E 252 320 95.000000
E 252 357 97.000000
E 252 372 106.000000
E 253 359 107.000000
E 254 339 97.000000
E 254 427 92.000000
E 254 491 92.000000
E 255 292 97.000000
E 255 501 100.000000
E 255 575 97.000000
E 255 635 91.000000
E 256 348 96.000000
E 256 384 102.000000
E 256 611 96.000000
E 257 272 100.000000
E 257 491 97.000000
E 257 632 93.000000
E 258 405 93.000000
E 258 586 97.000000
E 259 356 98.000000
E 259 418 99.000000
E 259 461 98.000000
E 259 568 100.000000
E 259 595 104.000000
E 260 300 100.000000
E 261 543 97.000000
E 262 527 102.000000
E 263 336 101.000000
E 264 298 100.000000
E 264 314 93.000000
E 264 598 109.000000
E 265 505 102.000000
E 265 522 96.000000
E 265 561 100.000000
E 266 405 100.000000
E 266 558 98.000000
E 266 571 105.000000
E 267 449 103.000000
E 267 638 95.000000
E 268 351 99.000000
E 268 544 105.000000
E 269 588 100.000000
E 270 634 101.000000
E 271 287 92.000000
E 271 382 107.000000
E 271 534 96.000000
E 272 351 112.000000
E 272 399 94.000000
E 272 611 99.000000
E 272 624 102.000000
E 274 346 97.000000
E 276 281 95.000000
E 276 533 100.000000
E 277 445 105.000000
E 277 470 87.000000
E 278 587 97.000000
E 279 567 94.000000
E 280 334 96.000000
E 280 452 105.000000
E 281 489 107.000000
E 282 451 98.000000
E 283 284 99.000000
E 283 343 95.000000
E 283 612 102.000000
E 284 342 99.000000
E 284 558 106.000000
E 284 616 90.000000
E 286 387 99.000000
E 288 305 95.000000
E 288 456 92.000000
E 288 499 96.000000
E 288 515 92.000000
E 288 592 99.000000
E 289 469 94.000000
E 290 363 101.000000
E 291 321 90.000000
E 292 311 94.000000
E 292 459 102.000000
E 292 514 110.000000
E 292 615 108.000000
E 293 315 98.000000
E 293 376 98.000000
E 293 525 102.000000
E 294 301 98.000000
E 294 462 102.000000
E 295 352 103.000000
E 296 374 107.000000
E 297 394 102.000000
E 297 414 104.000000
E 297 548 98.000000
E 297 570 94.000000
E 297 621 88.000000
E 298 307 103.000000
E 298 309 101.000000
E 298 348 106.000000
E 298 526 102.000000
E 299 439 100.000000
E 300 321 99.000000
E 300 372 96.000000
E 300 537 104.000000
E 300 571 110.000000
E 300 575 99.000000
E 302 378 90.000000
E 302 394 98.000000
E 303 515 96.000000
E 305 400 97.000000
E 305 599 104.000000
E 306 358 94.000000
E 307 587 102.000000
E 308 377 98.000000
E 308 412 101.000000
E 308 501 100.000000
E 308 528 104.000000
E 309 482 97.000000
E 310 411 107.000000
E 310 640 97.000000
E 311 487 93.000000
E 312 330 98.000000
E 312 347 97.000000
E 312 504 89.000000
E 315 527 102.000000
E 315 628 104.000000
E 316 410 89.000000
E 316 417 98.000000
E 316 546 96.000000
E 316 602 94.000000
E 317 318 107.000000
E 317 350 102.000000
E 317 565 102.000000
E 319 320 93.000000
E 319 385 101.000000
E 319 532 102.000000
E 320 355 99.000000
E 320 570 97.000000
E 320 620 109.000000
E 321 377 96.000000
E 321 464 97.000000
E 321 559 101.000000
E 322 387 104.000000
E 323 432 105.000000
E 323 607 98.000000
E 324 427 97.000000
E 325 372 109.000000
E 325 399 103.000000
E 325 555 95.000000
E 326 443 101.000000
E 327 398 97.000000
E 327 475 104.000000
E 329 502 100.000000
E 329 598 101.000000
E 329 617 100.000000
E 330 525 103.000000
E 331 553 95.000000
E 332 604 99.000000
E 333 469 108.000000
E 334 427 97.000000
E 334 474 96.000000
E 334 629 106.000000
E 335 463 103.000000
E 336 480 98.000000
E 336 526 101.000000
E 337 504 106.000000
E 337 509 104.000000
E 338 478 96.000000
E 339 458 92.000000
E 339 513 98.000000
E 339 608 95.000000
E 340 516 104.000000
E 340 540 98.000000
E 342 546 98.000000
E 343 438 98.000000
E 344 419 102.000000
E 345 554 103.000000
E 347 400 106.000000
E 347 583 103.000000
E 348 418 99.000000
E 348 585 91.000000
E 348 616 98.000000
E 349 393 106.000000
E 349 487 107.000000
E 350 486 98.000000
E 351 431 103.000000
E 351 562 107.000000
E 352 430 97.000000
E 352 444 94.000000
E 352 576 105.000000
E 354 499 99.000000
E 354 553 100.000000
E 355 457 97.000000
E 355 572 96.000000
E 355 610 98.000000
E 356 479 95.000000
E 356 519 102.000000
E 356 588 93.000000
E 358 436 95.000000
E 359 553 99.000000
E 360 580 100.000000
E 362 426 91.000000
E 362 431 100.000000
E 363 397 96.000000
E 364 387 96.000000
E 364 488 109.000000
E 364 533 97.000000
E 365 395 99.000000
E 365 403 102.000000
E 365 466 111.000000
E 365 585 96.000000
E 365 618 103.000000
E 366 390 91.000000
E 367 427 101.000000
E 367 543 94.000000
E 367 616 108.000000
E 368 456 102.000000
E 369 566 105.000000
E 370 499 89.000000
E 371 374 100.000000
E 371 536 107.000000
E 371 539 109.000000
E 373 486 92.000000
E 373 569 106.000000
E 374 403 95.000000
E 374 510 92.000000
E 374 565 96.000000
E 375 422 103.000000
E 376 390 101.000000
E 376 516 97.000000
E 376 557 92.000000
E 376 613 92.000000
E 377 420 95.000000
E 378 408 103.000000
E 380 613 101.000000
E 381 584 98.000000
E 381 618 92.000000
E 382 438 96.000000
E 382 552 96.000000
E 383 522 95.000000
E 384 550 101.000000
E 386 397 96.000000
E 386 420 99.000000
E 387 462 98.000000
E 388 455 98.000000
E 389 550 92.000000
E 390 405 96.000000
E 390 544 102.000000
E 391 489 105.000000
E 391 587 103.000000
E 392 549 98.000000
E 392 577 95.000000
E 392 633 102.000000
E 393 431 96.000000
E 393 466 95.000000
E 393 640 97.000000
E 394 590 104.000000
E 395 495 103.000000
E 395 501 98.000000
E 396 412 94.000000
E 396 413 100.000000
E 396 539 92.000000
E 397 476 105.000000
E 398 421 95.000000
E 400 463 108.000000
E 400 497 105.000000
E 400 561 102.000000
E 401 472 106.000000
E 402 456 96.000000
E 403 604 97.000000
E 405 415 99.000000
E 405 504 100.000000
E 405 518 102.000000
E 405 535 90.000000
E 405 542 104.000000
E 408 556 100.000000
E 408 563 101.000000
E 409 508 96.000000
E 409 538 93.000000
E 410 530 103.000000
E 411 449 90.000000
E 413 524 104.000000
E 414 449 101.000000
E 414 609 101.000000
E 415 526 96.000000
E 416 606 95.000000
E 419 450 101.000000
E 419 519 99.000000
E 419 621 95.000000
E 421 520 100.000000
E 423 428 106.000000
E 423 619 106.000000
E 424 438 98.000000
E 424 556 97.000000
E 424 584 95.000000
E 425 557 98.000000
E 426 461 93.000000
E 426 579 102.000000
E 427 473 97.000000
E 427 574 99.000000
E 429 561 97.000000
E 430 473 99.000000
E 430 536 95.000000
E 430 577 105.000000
E 431 575 90.000000
E 432 593 90.000000
E 433 564 102.000000
E 434 556 94.000000
E 435 441 102.000000
E 435 527 97.000000
E 435 606 102.000000
E 436 506 106.000000
E 436 592 93.000000
E 436 619 101.000000
E 437 522 102.000000
E 440 559 92.000000
E 441 467 106.000000
E 441 536 100.000000
E 445 573 99.000000
E 446 479 103.000000
E 448 580 100.000000
E 448 590 104.000000
E 452 568 101.000000
E 453 554 106.000000
E 453 583 102.000000
E 455 495 93.000000
E 455 529 100.000000
E 455 560 107.000000
E 457 595 94.000000
E 459 482 92.000000
E 459 559 102.000000
E 459 590 103.000000
E 460 618 105.000000
E 460 624 107.000000
E 461 494 101.000000
E 462 496 95.000000
E 463 589 96.000000
E 465 616 90.000000
E 467 508 92.000000
E 467 547 98.000000
E 467 639 98.000000
E 468 476 103.000000
E 469 491 103.000000
E 470 631 98.000000
E 471 529 101.000000
E 471 532 99.000000
E 472 502 96.000000
E 472 603 86.000000
E 474 566 94.000000
E 474 609 99.000000
E 475 537 100.000000
E 475 598 102.000000
E 476 552 99.000000
E 480 617 97.000000
E 481 598 97.000000
E 484 588 104.000000
E 484 634 103.000000
E 485 547 94.000000
E 486 504 97.000000
E 486 568 101.000000
E 487 573 109.000000
E 489 636 103.000000
E 490 516 91.000000
E 491 603 99.000000
E 494 525 104.000000
E 495 581 95.000000
E 497 593 94.000000
E 499 617 101.000000
E 501 633 102.000000
E 502 538 98.000000
E 503 598 95.000000
E 503 634 103.000000
E 505 576 98.000000
E 505 596 105.000000
E 505 639 100.000000
E 507 555 99.000000
E 507 557 103.000000
E 508 579 91.000000
E 511 567 101.000000
E 512 549 85.000000
E 512 557 91.000000
E 512 563 101.000000
E 512 602 89.000000
E 513 550 99.000000
E 513 616 102.000000
E 517 609 102.000000
E 521 530 100.000000
E 524 547 108.000000
E 524 594 107.000000
E 524 601 107.000000
E 529 583 96.000000
E 532 544 111.000000
E 533 560 94.000000
E 533 608 107.000000
E 534 597 91.000000
E 536 568 98.000000
E 537 558 104.000000
E 538 598 103.000000
E 541 565 98.000000
E 541 574 107.000000
E 542 594 100.000000
E 546 590 100.000000
E 547 559 97.000000
E 547 578 100.000000
E 547 638 99.000000
E 549 636 98.000000
E 553 585 97.000000
E 554 630 98.000000
E 556 640 98.000000
E 557 569 94.000000
E 557 601 109.000000
E 564 633 98.000000
E 566 571 101.000000
E 570 610 100.000000
E 571 597 101.000000
E 571 614 101.000000
E 572 597 99.000000
E 572 630 103.000000
E 581 612 97.000000
E 586 603 105.000000
E 590 597 98.000000
E 591 592 97.000000
E 594 623 104.000000
E 596 597 105.000000
E 597 623 110.000000
E 598 619 100.000000
E 604 608 99.000000
E 607 610 98.000000
E 617 638 100.000000
END

SECTION Terminals
Terminals 9
TP 1 452.000000
TP 2 836.000000
TP 3 784.000000
TP 4 508.000000
TP 5 392.000000
TP 6 728.000000
TP 7 468.000000
TP 8 604.000000
TP 9 196.000000
END

EOF
